     Program PWSCF v.7.2 starts on 17Jul2025 at 22:28:51

     Waiting for input...
     Reading input from standard input

     Current dimensions of program PWSCF are:
     Max number of different atomic species (ntypx) = 10
     Max number of k-points (npk) =  40000
     Max angular momentum in pseudopotentials (lmaxx) =  4
     file Ti.pbe-spn-rrkjus_psl.1.0.0.UPF: wavefunction(s)  3S 3D renormalized

     Subspace diagonalization in iterative solution of the eigenvalue problem:
     a serial algorithm will be used

     Using Slab Decomposition

     bravais-lattice index     =            1
     lattice parameter (alat)  =       7.3700  a.u.
     unit-cell volume          =     400.3156 (a.u.)^3
     number of atoms/cell      =            3
     number of atomic types    =            2
     number of electrons       =        24.00
     number of Kohn-Sham states=           16
     kinetic-energy cutoff     =      40.0000  Ry
     charge density cutoff     =     320.0000  Ry
     scf convergence threshold =      1.0E-08
     mixing beta               =       0.7000
     number of iterations used =            8  plain     mixing
     energy convergence thresh.=      1.0E-04
     force convergence thresh. =      1.0E-03
     Exchange-correlation= PBE
                           (   1   4   3   4   0   0   0)
     nstep                     =           50

     celldm(1)=   7.370000  celldm(2)=   0.000000  celldm(3)=   0.000000
     celldm(4)=   0.000000  celldm(5)=   0.000000  celldm(6)=   0.000000

     crystal axes: (cart. coord. in units of alat)
               a(1) = (   1.000000   0.000000   0.000000 )
               a(2) = (   0.000000   1.000000   0.000000 )
               a(3) = (   0.000000   0.000000   1.000000 )

     reciprocal axes: (cart. coord. in units 2 pi/alat)
               b(1) = (  1.000000  0.000000  0.000000 )
               b(2) = (  0.000000  1.000000  0.000000 )
               b(3) = (  0.000000  0.000000  1.000000 )

     PseudoPot. # 1 for Ti read from file:
     ../pseudo/Ti.pbe-spn-rrkjus_psl.1.0.0.UPF
     MD5 check sum: e281089c08e14b8efcf92e44a67ada65
     Pseudo is Ultrasoft + core correction, Zval = 12.0
     Generated using &quot;atomic&quot; code by A. Dal Corso  v.6.2.2
     Using radial grid of 1177 points,  6 beta functions with:
                l(1) =   0
                l(2) =   0
                l(3) =   1
                l(4) =   1
                l(5) =   2
                l(6) =   2
     Q(r) pseudized with 0 coefficients

     PseudoPot. # 2 for O  read from file:
     ../pseudo/O.pbe-n-rrkjus_psl.1.0.0.UPF
     MD5 check sum: 91400c9766925bcf19f520983a725ff0
     Pseudo is Ultrasoft + core correction, Zval =  6.0
     Generated using &quot;atomic&quot; code by A. Dal Corso  v.6.3MaX
     Using radial grid of 1095 points,  4 beta functions with:
                l(1) =   0
                l(2) =   0
                l(3) =   1
                l(4) =   1
     Q(r) pseudized with 0 coefficients

     atomic species   valence    mass     pseudopotential
        Ti            12.00    47.86700     Ti( 1.00)
        O              6.00    15.99900     O ( 1.00)

      4 Sym. Ops. (no inversion) found

                                    s                        frac. trans.

      isym =  1     identity

 cryst.   s( 1) = (     1          0          0      )
                  (     0          1          0      )
                  (     0          0          1      )

 cart.    s( 1) = (  1.0000000  0.0000000  0.0000000 )
                  (  0.0000000  1.0000000  0.0000000 )
                  (  0.0000000  0.0000000  1.0000000 )

      isym =  2     180 deg rotation - cart. axis [0,1,0]

[...]

      isym =  3     inv. 180 deg rotation - cart. axis [0,0,1]

[...]

      isym =  4     inv. 180 deg rotation - cart. axis [1,0,0]

 cryst.   s( 4) = (    -1          0          0      )
                  (     0          1          0      )
                  (     0          0          1      )

 cart.    s( 4) = ( -1.0000000  0.0000000  0.0000000 )
                  (  0.0000000  1.0000000  0.0000000 )
                  (  0.0000000  0.0000000  1.0000000 )

     point group C_2v (mm2)
     there are  4 classes
     the character table:

       E     C2    s_v   s_v'
A_1    1.00  1.00  1.00  1.00
A_2    1.00  1.00 -1.00 -1.00
B_1    1.00 -1.00  1.00 -1.00
B_2    1.00 -1.00 -1.00  1.00

     the symmetry operations in each class and the name of the first element:

     E        1
          identity
     C2       2
          180 deg rotation - cart. axis [0,1,0]
     s_v      3
          inv. 180 deg rotation - cart. axis [0,0,1]
     s_v'     4
          inv. 180 deg rotation - cart. axis [1,0,0]

   Cartesian axes

     site n.     atom                  positions (alat units)
         1           Ti  tau(   1) = (   0.0000000   0.0000000   0.0000000  )
         2           O   tau(   2) = (   0.4987133   0.4987133   0.0000000  )
         3           O   tau(   3) = (  -0.4987133   0.4987133   0.0000000  )

   Crystallographic axes

     site n.     atom                  positions (cryst. coord.)
         1           Ti  tau(   1) = (  0.0000000  0.0000000  0.0000000  )
         2           O   tau(   2) = (  0.4987133  0.4987133  0.0000000  )
         3           O   tau(   3) = ( -0.4987133  0.4987133  0.0000000  )

     number of k points=    27  Methfessel-Paxton smearing, width (Ry)=  0.0100
                       cart. coord. in units 2pi/alat
        k(    1) = (   0.0000000   0.0000000   0.0000000), wk =   0.0312500
        k(    2) = (   0.0000000   0.0000000   0.2500000), wk =   0.0625000
        k(    3) = (   0.0000000   0.0000000  -0.5000000), wk =   0.0312500
        k(    4) = (   0.0000000   0.2500000   0.2500000), wk =   0.1250000
        k(    5) = (   0.0000000   0.2500000  -0.5000000), wk =   0.0625000
        k(    6) = (   0.0000000  -0.5000000  -0.5000000), wk =   0.0312500
        k(    7) = (   0.2500000   0.2500000   0.2500000), wk =   0.2500000
        k(    8) = (   0.2500000   0.2500000  -0.5000000), wk =   0.1250000
        k(    9) = (   0.2500000  -0.5000000  -0.5000000), wk =   0.0625000
        k(   10) = (  -0.5000000  -0.5000000  -0.5000000), wk =   0.0312500
        k(   11) = (   0.2500000   0.0000000   0.0000000), wk =   0.0625000
        k(   12) = (   0.0000000   0.2500000   0.0000000), wk =   0.0625000
        k(   13) = (  -0.5000000   0.0000000   0.0000000), wk =   0.0312500
        k(   14) = (   0.0000000  -0.5000000   0.0000000), wk =   0.0312500
        k(   15) = (   0.2500000   0.0000000  -0.2500000), wk =   0.1250000
        k(   16) = (   0.2500000  -0.2500000   0.0000000), wk =   0.1250000
        k(   17) = (   0.2500000   0.0000000   0.5000000), wk =   0.0625000
        k(   18) = (  -0.5000000  -0.2500000   0.0000000), wk =   0.0625000
        k(   19) = (   0.0000000  -0.5000000   0.2500000), wk =   0.0625000
        k(   20) = (   0.2500000  -0.5000000   0.0000000), wk =   0.0625000
        k(   21) = (  -0.5000000   0.0000000   0.2500000), wk =   0.0625000
        k(   22) = (  -0.5000000   0.0000000   0.5000000), wk =   0.0312500
        k(   23) = (  -0.5000000   0.5000000   0.0000000), wk =   0.0312500
        k(   24) = (  -0.5000000  -0.2500000   0.2500000), wk =   0.1250000
        k(   25) = (  -0.2500000  -0.5000000   0.2500000), wk =   0.1250000
        k(   26) = (  -0.5000000   0.2500000   0.5000000), wk =   0.0625000
        k(   27) = (  -0.5000000   0.5000000   0.2500000), wk =   0.0625000

                       cryst. coord.
        k(    1) = (   0.0000000   0.0000000   0.0000000), wk =   0.0312500
        k(    2) = (   0.0000000   0.0000000   0.2500000), wk =   0.0625000
        k(    3) = (   0.0000000   0.0000000  -0.5000000), wk =   0.0312500
        k(    4) = (   0.0000000   0.2500000   0.2500000), wk =   0.1250000
        k(    5) = (   0.0000000   0.2500000  -0.5000000), wk =   0.0625000
        k(    6) = (   0.0000000  -0.5000000  -0.5000000), wk =   0.0312500
        k(    7) = (   0.2500000   0.2500000   0.2500000), wk =   0.2500000
        k(    8) = (   0.2500000   0.2500000  -0.5000000), wk =   0.1250000
        k(    9) = (   0.2500000  -0.5000000  -0.5000000), wk =   0.0625000
        k(   10) = (  -0.5000000  -0.5000000  -0.5000000), wk =   0.0312500
        k(   11) = (   0.2500000   0.0000000   0.0000000), wk =   0.0625000
        k(   12) = (   0.0000000   0.2500000   0.0000000), wk =   0.0625000
        k(   13) = (  -0.5000000   0.0000000   0.0000000), wk =   0.0312500
        k(   14) = (   0.0000000  -0.5000000   0.0000000), wk =   0.0312500
        k(   15) = (   0.2500000   0.0000000  -0.2500000), wk =   0.1250000
        k(   16) = (   0.2500000  -0.2500000   0.0000000), wk =   0.1250000
        k(   17) = (   0.2500000   0.0000000   0.5000000), wk =   0.0625000
        k(   18) = (  -0.5000000  -0.2500000   0.0000000), wk =   0.0625000
        k(   19) = (   0.0000000  -0.5000000   0.2500000), wk =   0.0625000
        k(   20) = (   0.2500000  -0.5000000   0.0000000), wk =   0.0625000
        k(   21) = (  -0.5000000   0.0000000   0.2500000), wk =   0.0625000
        k(   22) = (  -0.5000000   0.0000000   0.5000000), wk =   0.0312500
        k(   23) = (  -0.5000000   0.5000000   0.0000000), wk =   0.0312500
        k(   24) = (  -0.5000000  -0.2500000   0.2500000), wk =   0.1250000
        k(   25) = (  -0.2500000  -0.5000000   0.2500000), wk =   0.1250000
        k(   26) = (  -0.5000000   0.2500000   0.5000000), wk =   0.0625000
        k(   27) = (  -0.5000000   0.5000000   0.2500000), wk =   0.0625000

     Check: negative core charge=   -0.000009

     Initial potential from superposition of free atoms

     starting charge      23.9985, renormalised to      24.0000
     Starting wfcs are   18 randomized atomic wfcs

     Self-consistent Calculation

     iteration #  1     ecut=    40.00 Ry     beta= 0.70
     Davidson diagonalization with overlap

     ethr =  1.00E-02,  avg # of iterations =  5.7

     total energy              =    3529.26706910 Ry
     estimated scf accuracy    <       7.37717279 Ry

[...]

     c_bands:  1 eigenvalues not converged
     ethr =  2.20E-05,  avg # of iterations =  2.2

[...]

     End of self-consistent calculation

          k = 0.0000 0.0000 0.0000 (  1743 PWs)   bands (ev):

   -86.6574 -86.6083 -86.5993 -50.4475 -32.2114 -26.9707 -26.5734 -26.5732
     3.0324   5.5599   6.4316   6.7024   6.7079   6.7387   7.1462   7.7671

     occupation numbers
     1.0000   1.0000   1.0000   1.0000   1.0000   1.0000   1.0000   1.0000
     1.0000   1.0000   1.0047   0.6374   0.6043   0.4140  -0.0001  -0.0000

[...]

          k =-0.5000-0.5000-0.5000 (  1736 PWs)   bands (ev):

[...]

     the Fermi energy is     6.7248 ev

!    total energy              =    3526.02618320 Ry
     estimated scf accuracy    <          5.3E-09 Ry
     smearing contrib. (-TS)   =      -0.00046256 Ry
     internal energy E=F+TS    =    3526.02664576 Ry

     The total energy is F=E-TS. E is the sum of the following terms:
     one-electron contribution =    -183.42805674 Ry
     hartree contribution      =      82.37202322 Ry
     xc contribution           =     -35.67264350 Ry
     ewald contribution        =    3662.75532279 Ry

     convergence has been achieved in  23 iterations

     Forces acting on atoms (cartesian axes, Ry/au):

     atom    1 type  1   force =     0.00000000   -0.00043210    0.00000000
     atom    2 type  2   force = **************    0.00021605    0.00000000
     atom    3 type  2   force = **************    0.00021605    0.00000000
     The non-local contrib.  to forces
     atom    1 type  1   force =     0.00000000    0.00273255    0.00000000
     atom    2 type  2   force =     1.34845019    0.00383185   -0.00000000
     atom    3 type  2   force =    -1.34845019    0.00383185    0.00000000
     The ionic contribution  to forces
     atom    1 type  1   force =     0.00000000   -0.05814426   -0.00000000
     atom    2 type  2   force = **************    0.02907213   -0.00000000
     atom    3 type  2   force = **************    0.02907213   -0.00000000
     The local contribution  to forces
     atom    1 type  1   force =     0.00000000    0.05527280    0.00000000
     atom    2 type  2   force =     1.04952206   -0.03268561    0.00000000
     atom    3 type  2   force =    -1.04952206   -0.03268561    0.00000000
     The core correction contribution to forces
     atom    1 type  1   force =    -0.00000000   -0.00029170   -0.00000000
     atom    2 type  2   force =     0.00877568   -0.00000371   -0.00000000
     atom    3 type  2   force =    -0.00877568   -0.00000371   -0.00000000
     The Hubbard contrib.    to forces
     atom    1 type  1   force =     0.00000000    0.00000000    0.00000000
     atom    2 type  2   force =     0.00000000    0.00000000    0.00000000
     atom    3 type  2   force =     0.00000000    0.00000000    0.00000000
     The SCF correction term to forces
     atom    1 type  1   force =    -0.00000000   -0.00000167    0.00000000
     atom    2 type  2   force =     0.00000052    0.00000120    0.00000000
     atom    3 type  2   force =    -0.00000052    0.00000120    0.00000000

     Total force = ************     Total SCF correction =     0.000002

     BFGS Geometry Optimization
     Energy error            =      0.0E+00 Ry
     Gradient error          =      2.0E+05 Ry/Bohr

     number of scf cycles    =   1
     number of bfgs steps    =   0

     energy             new  =    3526.0261832040 Ry

     new trust radius        =       0.5000000000 bohr
     new conv_thr            =       0.0000000100 Ry

ATOMIC_POSITIONS (angstrom)
Ti            0.0000000000       -0.0000000006        0.0000000000
O             1.6804113945        1.9450000003        0.0000000000
O            -1.6804113945        1.9450000003        0.0000000000

     Writing config-only to output data dir ./tmp/tio2_relax.save/
     NEW-OLD atomic charge density approx. for the potential

[...]

     Total force =    52.948142     Total SCF correction =     0.000052
     Energy error            =      3.7E+03 Ry
     Gradient error          =      3.7E+01 Ry/Bohr

[...]

     energy             old  =    3526.0261832040 Ry
     energy             new  =    -173.6898241323 Ry

     CASE: energy            _new < energy            _old

[...]

     Threshold (ethr) on eigenvalues was too large:
     Diagonalizing with lowered threshold

     Davidson diagonalization with overlap

[...]

     WARNING: bfgs curvature condition failed, Theta= 0.801
     new trust radius        =       0.0003910187 bohr
     new conv_thr            =       0.0000000070 Ry

[...]

     WARNING: bfgs curvature condition failed, Theta= 0.935
     new trust radius        =       0.1043979021 bohr
     new conv_thr            =       0.0000000079 Ry

[...]

     c_bands:  1 eigenvalues not converged
     c_bands:  1 eigenvalues not converged
     ethr =  1.00E-06,  avg # of iterations = 11.7

[...]

     number of scf cycles    =  35
     number of bfgs steps    =  34

     energy             old  =    -184.4331855344 Ry
     energy             new  =    -184.4334629269 Ry

     CASE: energy            _new < energy            _old

     new trust radius        =       0.0035995313 bohr
     new conv_thr            =       0.0000000002 Ry

ATOMIC_POSITIONS (angstrom)
Ti            0.0000000000       -0.3733560110        0.0000000000
O             1.0318604233        2.1316780055        0.0000000000
O            -1.0318604233        2.1316780055       -0.0000000000

     Writing config-only to output data dir ./tmp/tio2_relax.save/
     NEW-OLD atomic charge density approx. for the potential

     Check: negative core charge=   -0.000008

     Self-consistent Calculation

[...]

     Threshold (ethr) on eigenvalues was too large:
     Diagonalizing with lowered threshold

     Davidson diagonalization with overlap

[...]

     total energy              =    -184.43346950 Ry
     estimated scf accuracy    <          4.4E-10 Ry

     iteration # 12     ecut=    40.00 Ry     beta= 0.70
     Davidson diagonalization with overlap

     ethr =  1.82E-12,  avg # of iterations =  4.8

     End of self-consistent calculation

[...]

          k = 0.2500-0.5000 0.0000 (  1700 PWs)   bands (ev):

[...]

          k =-0.5000 0.5000 0.2500 (  1692 PWs)   bands (ev):

   -53.5793 -30.0610 -30.0473 -29.8579 -14.6212 -13.3293  -0.8469   0.1033
     0.3306   0.4303   0.7173   1.9919   4.6740   5.1054   6.4331   6.5765

     occupation numbers
     1.0000   1.0000   1.0000   1.0000   1.0000   1.0000   1.0000   1.0000
     1.0000   1.0000   1.0000   1.0000  -0.0000  -0.0000  -0.0000  -0.0000

     the Fermi energy is     4.1974 ev

!    total energy              =    -184.43346950 Ry
     estimated scf accuracy    <          5.6E-11 Ry
     smearing contrib. (-TS)   =      -0.00013234 Ry
     internal energy E=F+TS    =    -184.43333716 Ry

     The total energy is F=E-TS. E is the sum of the following terms:
     one-electron contribution =    -132.12322061 Ry
     hartree contribution      =      72.52816719 Ry
     xc contribution           =     -33.17567239 Ry
     ewald contribution        =     -91.66261135 Ry

     convergence has been achieved in  12 iterations

     Forces acting on atoms (cartesian axes, Ry/au):

     atom    1 type  1   force =     0.00000000    0.00010854    0.00000000
     atom    2 type  2   force =    -0.00019900   -0.00005427    0.00000000
     atom    3 type  2   force =     0.00019900   -0.00005427    0.00000000
     The non-local contrib.  to forces
     atom    1 type  1   force =     0.00000000   -0.19214708    0.00000000
     atom    2 type  2   force =    -0.27945472    0.68456683    0.00000000
     atom    3 type  2   force =     0.27945472    0.68456683    0.00000000
     The ionic contribution  to forces
     atom    1 type  1   force =     0.00000000   13.33469462    0.00000000
     atom    2 type  2   force =     4.83324787   -6.66734731    0.00000000
     atom    3 type  2   force =    -4.83324787   -6.66734731   -0.00000000
     The local contribution  to forces
     atom    1 type  1   force =     0.00000000  -13.18462721    0.00000000
     atom    2 type  2   force =    -4.55454120    5.98667645   -0.00000000
     atom    3 type  2   force =     4.55454120    5.98667645    0.00000000
     The core correction contribution to forces
     atom    1 type  1   force =     0.00000000    0.04218611    0.00000000
     atom    2 type  2   force =     0.00055414   -0.00394639    0.00000000
     atom    3 type  2   force =    -0.00055414   -0.00394639    0.00000000
     The Hubbard contrib.    to forces
     atom    1 type  1   force =     0.00000000    0.00000000    0.00000000
     atom    2 type  2   force =     0.00000000    0.00000000    0.00000000
     atom    3 type  2   force =     0.00000000    0.00000000    0.00000000
     The SCF correction term to forces
     atom    1 type  1   force =    -0.00000000    0.00001005    0.00000000
     atom    2 type  2   force =    -0.00000509    0.00000411    0.00000000
     atom    3 type  2   force =     0.00000509    0.00000411   -0.00000000

     Total force =     0.000311     Total SCF correction =     0.000014
     Energy error            =      6.6E-06 Ry
     Gradient error          =      2.0E-04 Ry/Bohr

     bfgs converged in  36 scf cycles and  35 bfgs steps
     (criteria: energy <  1.0E-04 Ry, force <  1.0E-03 Ry/Bohr)

     End of BFGS Geometry Optimization

     Final energy             =    -184.4334694984 Ry

     File ./tmp/tio2_relax.bfgs deleted, as requested
Begin final coordinates

ATOMIC_POSITIONS (angstrom)
Ti            0.0000000000       -0.3733560110        0.0000000000
O             1.0318604233        2.1316780055        0.0000000000
O            -1.0318604233        2.1316780055       -0.0000000000
End final coordinates

     Writing all to output data dir ./tmp/tio2_relax.save/

     General routines

     Parallel routines

   This run was terminated on:  22:39:29  17Jul2025

   JOB DONE.