     Program PWSCF v.7.5 starts on 17Sep2025 at 20:40:41

     Reading input from TiO2.refill.scf.in

     Current dimensions of program PWSCF are:
     Max number of different atomic species (ntypx) = 10
     Max number of k-points (npk) =  40000
     Max angular momentum in pseudopotentials (lmaxx) =  4

     IMPORTANT: XC functional enforced from input :
     Exchange-correlation= PZ
                           (   1   1   0   0   0   0   0)
     Any further DFT definition will be discarded
     Please, verify this is what you really want

     Message from routine setup:
     using ibrav=0 with symmetry is DISCOURAGED, use correct ibrav instead

     Subspace diagonalization in iterative solution of the eigenvalue problem:
     a serial algorithm will be used

     Using Slab Decomposition

     bravais-lattice index     =            0
     lattice parameter (alat)  =       8.5989  a.u.
     unit-cell volume          =     408.5873 (a.u.)^3
     number of atoms/cell      =            6
     number of atomic types    =            2
     number of electrons       =        48.00
     number of Kohn-Sham states=           24
     kinetic-energy cutoff     =      40.0000  Ry
     charge density cutoff     =     320.0000  Ry
     scf convergence threshold =      1.0E-06
     mixing beta               =       0.3000
     number of iterations used =            8  plain     mixing
     Exchange-correlation= PZ
                           (   1   1   0   0   0   0   0)

     celldm(1)=   8.598882  celldm(2)=   0.000000  celldm(3)=   0.000000
     celldm(4)=   0.000000  celldm(5)=   0.000000  celldm(6)=   0.000000

     crystal axes: (cart. coord. in units of alat)
               a(1) = (   1.000000   0.000000   0.000000 )
               a(2) = (   0.000000   1.000000   0.000000 )
               a(3) = (   0.000000   0.000000   0.642627 )

     reciprocal axes: (cart. coord. in units 2 pi/alat)
               b(1) = (  1.000000  0.000000  0.000000 )
               b(2) = (  0.000000  1.000000  0.000000 )
               b(3) = (  0.000000  0.000000  1.556113 )

     PseudoPot. # 1 for Ti read from file:
     /home/dean_gov/qe-pp/gbrv_lda/ti_lda_v1.4.uspp.F.UPF
     MD5 check sum: 0d9f225c038fe889ca2a701dcc8d72cb
     Pseudo is Ultrasoft + core correction, Zval = 12.0
     Generated by new atomic code, or converted to UPF format
     Using radial grid of  851 points,  6 beta functions with:
                l(1) =   0
                l(2) =   0
                l(3) =   1
                l(4) =   1
                l(5) =   2
                l(6) =   2
     Q(r) pseudized with  6 coefficients,  rinner =    1.000   1.000   1.000
                                                       1.000   1.000

     PseudoPot. # 2 for O  read from file:
     /home/dean_gov/qe-pp/gbrv_lda/o_lda_v1.2.uspp.F.UPF
     MD5 check sum: 194b818514d2a7dbb603bb78519a4f40
     Pseudo is Ultrasoft + core correction, Zval =  6.0
     Generated by new atomic code, or converted to UPF format
     Using radial grid of  737 points,  5 beta functions with:
                l(1) =   0
                l(2) =   0
                l(3) =   1
                l(4) =   1
                l(5) =   2
     Q(r) pseudized with  8 coefficients,  rinner =    0.900   0.900   0.900
                                                       0.900   0.900

     atomic species   valence    mass     pseudopotential
     Ti               12.00    47.86700     Ti( 1.00)
     O                 6.00    15.99900     O ( 1.00)

     16 Sym. Ops., with inversion, found ( 8 have fractional translation)

   Cartesian axes

     site n.     atom                  positions (alat units)
         1        Ti     tau(   1) = (   0.5000004   0.5000004   0.3213138  )
         2        Ti     tau(   2) = (   0.0000000   0.0000000   0.0000000  )
         3        O      tau(   3) = (   0.6960619   0.6960619  -0.0000000  )
         4        O      tau(   4) = (   0.1960615   0.8039394   0.3213138  )
         5        O      tau(   5) = (   0.3039390   0.3039390  -0.0000000  )
         6        O      tau(   6) = (   0.8039394   0.1960615   0.3213138  )

     number of k points=    50
                       cart. coord. in units 2pi/alat
        k(    1) = (   0.0000000   0.0000000   0.0000000), wk =   0.0069444
        k(    2) = (   0.0000000   0.0000000   0.1945141), wk =   0.0138889
        k(    3) = (   0.0000000   0.0000000   0.3890283), wk =   0.0138889
        k(    4) = (   0.0000000   0.0000000   0.5835424), wk =   0.0138889
        k(    5) = (   0.0000000   0.0000000  -0.7780565), wk =   0.0069444
        k(    6) = (   0.0000000   0.1666667   0.0000000), wk =   0.0277778
        k(    7) = (   0.0000000   0.1666667   0.1945141), wk =   0.0555556
        k(    8) = (   0.0000000   0.1666667   0.3890283), wk =   0.0555556
        k(    9) = (   0.0000000   0.1666667   0.5835424), wk =   0.0555556
        k(   10) = (   0.0000000   0.1666667  -0.7780565), wk =   0.0277778
        k(   11) = (   0.0000000   0.3333333   0.0000000), wk =   0.0277778
        k(   12) = (   0.0000000   0.3333333   0.1945141), wk =   0.0555556
        k(   13) = (   0.0000000   0.3333333   0.3890283), wk =   0.0555556
        k(   14) = (   0.0000000   0.3333333   0.5835424), wk =   0.0555556
        k(   15) = (   0.0000000   0.3333333  -0.7780565), wk =   0.0277778
        k(   16) = (   0.0000000  -0.5000000   0.0000000), wk =   0.0138889
        k(   17) = (   0.0000000  -0.5000000   0.1945141), wk =   0.0277778
        k(   18) = (   0.0000000  -0.5000000   0.3890283), wk =   0.0277778
        k(   19) = (   0.0000000  -0.5000000   0.5835424), wk =   0.0277778
        k(   20) = (   0.0000000  -0.5000000  -0.7780565), wk =   0.0138889
        k(   21) = (   0.1666667   0.1666667   0.0000000), wk =   0.0277778
        k(   22) = (   0.1666667   0.1666667   0.1945141), wk =   0.0555556
        k(   23) = (   0.1666667   0.1666667   0.3890283), wk =   0.0555556
        k(   24) = (   0.1666667   0.1666667   0.5835424), wk =   0.0555556
        k(   25) = (   0.1666667   0.1666667  -0.7780565), wk =   0.0277778
        k(   26) = (   0.1666667   0.3333333   0.0000000), wk =   0.0555556
        k(   27) = (   0.1666667   0.3333333   0.1945141), wk =   0.1111111
        k(   28) = (   0.1666667   0.3333333   0.3890283), wk =   0.1111111
        k(   29) = (   0.1666667   0.3333333   0.5835424), wk =   0.1111111
        k(   30) = (   0.1666667   0.3333333  -0.7780565), wk =   0.0555556
        k(   31) = (   0.1666667  -0.5000000   0.0000000), wk =   0.0277778
        k(   32) = (   0.1666667  -0.5000000   0.1945141), wk =   0.0555556
        k(   33) = (   0.1666667  -0.5000000   0.3890283), wk =   0.0555556
        k(   34) = (   0.1666667  -0.5000000   0.5835424), wk =   0.0555556
        k(   35) = (   0.1666667  -0.5000000  -0.7780565), wk =   0.0277778
        k(   36) = (   0.3333333   0.3333333   0.0000000), wk =   0.0277778
        k(   37) = (   0.3333333   0.3333333   0.1945141), wk =   0.0555556
        k(   38) = (   0.3333333   0.3333333   0.3890283), wk =   0.0555556
        k(   39) = (   0.3333333   0.3333333   0.5835424), wk =   0.0555556
        k(   40) = (   0.3333333   0.3333333  -0.7780565), wk =   0.0277778
        k(   41) = (   0.3333333  -0.5000000   0.0000000), wk =   0.0277778
        k(   42) = (   0.3333333  -0.5000000   0.1945141), wk =   0.0555556
        k(   43) = (   0.3333333  -0.5000000   0.3890283), wk =   0.0555556
        k(   44) = (   0.3333333  -0.5000000   0.5835424), wk =   0.0555556
        k(   45) = (   0.3333333  -0.5000000  -0.7780565), wk =   0.0277778
        k(   46) = (  -0.5000000  -0.5000000   0.0000000), wk =   0.0069444
        k(   47) = (  -0.5000000  -0.5000000   0.1945141), wk =   0.0138889
        k(   48) = (  -0.5000000  -0.5000000   0.3890283), wk =   0.0138889
        k(   49) = (  -0.5000000  -0.5000000   0.5835424), wk =   0.0138889
        k(   50) = (  -0.5000000  -0.5000000  -0.7780565), wk =   0.0069444

     Check: negative core charge=   -0.000013

     Initial potential from superposition of free atoms

     starting charge      45.9999, renormalised to      48.0000

     negative rho (up, down):  1.921E-03 0.000E+00
     Starting wfcs are   36 randomized atomic wfcs

     Self-consistent Calculation

     iteration #  1     ecut=    40.00 Ry     beta= 0.30
     Davidson diagonalization with overlap
     ethr =  1.00E-02,  avg # of iterations =  2.0

     negative rho (up, down):  2.089E-03 0.000E+00

     total energy              =    -368.15292235 Ry
     estimated scf accuracy    <       1.21222552 Ry

[...]

     total energy              =    -368.42730696 Ry
     estimated scf accuracy    <       0.00000148 Ry

     iteration # 10     ecut=    40.00 Ry     beta= 0.30
     Davidson diagonalization with overlap
     ethr =  3.09E-09,  avg # of iterations =  3.5

     negative rho (up, down):  1.848E-03 0.000E+00

     End of self-consistent calculation

          k = 0.0000 0.0000 0.0000 (  1787 PWs)   bands (ev):

   -46.9232 -46.9019 -23.6028 -23.6027 -23.4096 -23.4095 -23.3668 -23.3241
    -8.8322  -7.5495  -6.7073  -6.7073   3.2463   3.6633   3.9693   5.2927
     5.2928   6.5798   6.5798   7.2121   8.5360   8.7648   8.7648   9.2386

[...]

          k = 0.3333-0.5000-0.7781 (  1732 PWs)   bands (ev):

[...]

          k =-0.5000-0.5000 0.0000 (  1728 PWs)   bands (ev):

[...]

          k =-0.5000-0.5000-0.7781 (  1736 PWs)   bands (ev):

   -46.8618 -46.8616 -23.8758 -23.8755 -23.4433 -23.4431 -23.4079 -23.4077
    -7.4089  -7.4088  -7.0629  -7.0629   4.2408   4.2409   4.5043   4.5043
     5.5890   5.5891   6.4301   6.4301   7.8539   7.8539   8.5585   8.5585

     highest occupied level (ev):     9.2386

!    total energy              =    -368.42730704 Ry
     estimated scf accuracy    <       0.00000027 Ry

     The total energy is the sum of the following terms:
     one-electron contribution =    -121.25322458 Ry
     hartree contribution      =      84.43137494 Ry
     xc contribution           =     -64.52905277 Ry
     ewald contribution        =    -267.07640463 Ry

     convergence has been achieved in  10 iterations

     Writing all to output data dir ./tmp/TiO2.save/ :
     XML data file, charge density, pseudopotentials, collected wavefunctions

     General routines

     Parallel routines

   This run was terminated on:  20:55:19  17Sep2025

   JOB DONE.
Note: The following floating-point exceptions are signalling: IEEE_INVALID_FLAG