     Program PWSCF v.7.5 starts on 17Sep2025 at 19:45:48

     Reading input from TiO2.relax.in

     Current dimensions of program PWSCF are:
     Max number of different atomic species (ntypx) = 10
     Max number of k-points (npk) =  40000
     Max angular momentum in pseudopotentials (lmaxx) =  4

     IMPORTANT: XC functional enforced from input :
     Exchange-correlation= PZ
                           (   1   1   0   0   0   0   0)
     Any further DFT definition will be discarded
     Please, verify this is what you really want

     Message from routine setup:
     using ibrav=0 with symmetry is DISCOURAGED, use correct ibrav instead

     Subspace diagonalization in iterative solution of the eigenvalue problem:
     a serial algorithm will be used

     Using Slab Decomposition

     bravais-lattice index     =            0
     lattice parameter (alat)  =       8.7906  a.u.
     unit-cell volume          =     433.6888 (a.u.)^3
     number of atoms/cell      =            6
     number of atomic types    =            2
     number of electrons       =        48.00
     number of Kohn-Sham states=           24
     kinetic-energy cutoff     =      40.0000  Ry
     charge density cutoff     =     320.0000  Ry
     scf convergence threshold =      1.0E-06
     mixing beta               =       0.3000
     number of iterations used =            8  plain     mixing
     energy convergence thresh.=      1.0E-04
     force convergence thresh. =      1.0E-03
     press convergence thresh. =      5.0E-01
     Exchange-correlation= PZ
                           (   1   1   0   0   0   0   0)
     nstep                     =           50

     celldm(1)=   8.790590  celldm(2)=   0.000000  celldm(3)=   0.000000
     celldm(4)=   0.000000  celldm(5)=   0.000000  celldm(6)=   0.000000

     crystal axes: (cart. coord. in units of alat)
               a(1) = (   1.000000   0.000000   0.000000 )
               a(2) = (   0.000000   1.000000   0.000000 )
               a(3) = (   0.000000   0.000000   0.638446 )

     reciprocal axes: (cart. coord. in units 2 pi/alat)
               b(1) = (  1.000000  0.000000  0.000000 )
               b(2) = (  0.000000  1.000000  0.000000 )
               b(3) = (  0.000000  0.000000  1.566303 )

     PseudoPot. # 1 for Ti read from file:
     /home/dean_gov/qe-pp/gbrv_lda/ti_lda_v1.4.uspp.F.UPF
     MD5 check sum: 0d9f225c038fe889ca2a701dcc8d72cb
     Pseudo is Ultrasoft + core correction, Zval = 12.0
     Generated by new atomic code, or converted to UPF format
     Using radial grid of  851 points,  6 beta functions with:
                l(1) =   0
                l(2) =   0
                l(3) =   1
                l(4) =   1
                l(5) =   2
                l(6) =   2
     Q(r) pseudized with  6 coefficients,  rinner =    1.000   1.000   1.000
                                                       1.000   1.000

     PseudoPot. # 2 for O  read from file:
     /home/dean_gov/qe-pp/gbrv_lda/o_lda_v1.2.uspp.F.UPF
     MD5 check sum: 194b818514d2a7dbb603bb78519a4f40
     Pseudo is Ultrasoft + core correction, Zval =  6.0
     Generated by new atomic code, or converted to UPF format
     Using radial grid of  737 points,  5 beta functions with:
                l(1) =   0
                l(2) =   0
                l(3) =   1
                l(4) =   1
                l(5) =   2
     Q(r) pseudized with  8 coefficients,  rinner =    0.900   0.900   0.900
                                                       0.900   0.900

     atomic species   valence    mass     pseudopotential
     Ti               12.00    47.86700     Ti( 1.00)
     O                 6.00    15.99900     O ( 1.00)

     16 Sym. Ops., with inversion, found ( 8 have fractional translation)

   Cartesian axes

     site n.     atom                  positions (alat units)
         1        Ti     tau(   1) = (   0.5000004   0.5000004   0.3192234  )
         2        Ti     tau(   2) = (   0.0000000   0.0000000   0.0000000  )
         3        O      tau(   3) = (   0.6950896   0.6950896   0.0000000  )
         4        O      tau(   4) = (   0.1950892   0.8049117   0.3192234  )
         5        O      tau(   5) = (   0.3049112   0.3049112   0.0000000  )
         6        O      tau(   6) = (   0.8049117   0.1950892   0.3192234  )

     number of k points=     9
                       cart. coord. in units 2pi/alat
        k(    1) = (   0.0000000   0.0000000   0.0000000), wk =   0.0555556
        k(    2) = (   0.0000000   0.0000000   0.3915758), wk =   0.1111111
        k(    3) = (   0.0000000   0.0000000  -0.7831517), wk =   0.0555556
        k(    4) = (   0.0000000   0.3333333   0.0000000), wk =   0.2222222
        k(    5) = (   0.0000000   0.3333333   0.3915758), wk =   0.4444444
        k(    6) = (   0.0000000   0.3333333  -0.7831517), wk =   0.2222222
        k(    7) = (   0.3333333   0.3333333   0.0000000), wk =   0.2222222
        k(    8) = (   0.3333333   0.3333333   0.3915758), wk =   0.4444444
        k(    9) = (   0.3333333   0.3333333  -0.7831517), wk =   0.2222222

     Check: negative core charge=   -0.000012

     Initial potential from superposition of free atoms

     starting charge      45.9999, renormalised to      48.0000

     negative rho (up, down):  1.752E-03 0.000E+00
     Starting wfcs are   36 randomized atomic wfcs

     Self-consistent Calculation

     iteration #  1     ecut=    40.00 Ry     beta= 0.30
     Davidson diagonalization with overlap
     ethr =  1.00E-02,  avg # of iterations =  2.0

     negative rho (up, down):  1.905E-03 0.000E+00

     total energy              =    -368.13134100 Ry
     estimated scf accuracy    <       1.24323029 Ry

[...]

     End of self-consistent calculation

          k = 0.0000 0.0000 0.0000 (  1859 PWs)   bands (ev):

   -48.0037 -47.9885 -24.6191 -24.6190 -24.4670 -24.4670 -24.4334 -24.4016
    -9.4399  -8.2519  -7.5573  -7.5572   2.6132   3.0864   3.4854   4.6130
     4.6131   5.7765   5.7765   6.4156   7.6529   7.8807   7.8807   8.3200

[...]

     highest occupied level (ev):     8.3200

!    total energy              =    -368.41474248 Ry
     estimated scf accuracy    <       0.00000093 Ry

     The total energy is the sum of the following terms:
     one-electron contribution =    -129.55335300 Ry
     hartree contribution      =      86.91306329 Ry
     xc contribution           =     -64.26069491 Ry
     ewald contribution        =    -261.51375787 Ry

     convergence has been achieved in  12 iterations

[...]

     Forces acting on atoms (cartesian axes, Ry/au):

     atom    1 type  1   force =     0.00000000    0.00000000   -0.00000000
     atom    2 type  1   force =     0.00000000    0.00000000   -0.00000000
     atom    3 type  2   force =    -0.00459856   -0.00459856   -0.00000000
     atom    4 type  2   force =    -0.00459856    0.00459856   -0.00000000
     atom    5 type  2   force =     0.00459856    0.00459856   -0.00000000
     atom    6 type  2   force =     0.00459856   -0.00459856    0.00000000

     Total force =     0.013007     Total SCF correction =     0.000334

     Computing stress (Cartesian axis) and pressure

     negative rho (up, down):  1.666E-03 0.000E+00
          total   stress  (Ry/bohr**3)                   (kbar)     P=     -132.09
  -0.00085283   0.00000000   0.00000000         -125.45        0.00        0.00
   0.00000000  -0.00085283   0.00000000            0.00     -125.45        0.00
   0.00000000   0.00000000  -0.00098805            0.00        0.00     -145.35

     BFGS Geometry Optimization
     Energy error            =      2.9E-02 Ry
     Gradient error          =      4.6E-03 Ry/Bohr
     Cell gradient error     =      1.5E+02 kbar

     number of scf cycles    =   1
     number of bfgs steps    =   0

     enthalpy           new  =    -368.4147424839 Ry

     new trust radius        =       0.1028812913 bohr
     new conv_thr            =       0.0000010000 Ry

     new unit-cell volume =    405.13224 a.u.^3 (    60.03440 Ang^3 )
     density =      4.41810 g/cm^3

CELL_PARAMETERS (angstrom)
   4.552601119   0.000000000   0.000000000
   0.000000000   4.552601119   0.000000000
   0.000000000   0.000000000   2.896549786

ATOMIC_POSITIONS (angstrom)
Ti               2.2763025169        2.2763025169        1.4482768438
Ti               0.0000000000        0.0000000000       -0.0000000000
O                3.1620842173        3.1620842173       -0.0000000000
O                0.8857817004        3.6668233333        1.4482768438
O                1.3905208164        1.3905208164       -0.0000000000
O                3.6668233333        0.8857817004        1.4482768438

     Writing config-only to output data dir ./tmp/TiO2.save/ :
     XML data file
     NEW-OLD atomic charge density approx. for the potential
     New effective cutoffs (rho, wfc):  335.94   41.99

[...]

     Energy error            =      1.0E-02 Ry
     Gradient error          =      7.9E-03 Ry/Bohr
     Cell gradient error     =      6.2E+01 kbar

[...]

     enthalpy           old  =    -368.4147424839 Ry
     enthalpy           new  =    -368.4251504318 Ry

     CASE: enthalpy          _new < enthalpy          _old

[...]

     Threshold (ethr) on eigenvalues was too large:
     Diagonalizing with lowered threshold

     Davidson diagonalization with overlap
     ethr =  8.21E-08,  avg # of iterations =  3.9

[...]

     Total force =     0.000146     Total SCF correction =     0.000304
     SCF correction compared to forces is large: reduce conv_thr to get better values

[...]

     number of scf cycles    =   6
     number of bfgs steps    =   5

     enthalpy           old  =    -368.4263112673 Ry
     enthalpy           new  =    -368.4263114257 Ry

     CASE: enthalpy          _new < enthalpy          _old

     new trust radius        =       0.0004008756 bohr
     new conv_thr            =       0.0000000100 Ry

     new unit-cell volume =    408.58731 a.u.^3 (    60.54639 Ang^3 )
     density =      4.38074 g/cm^3

[...]

ATOMIC_POSITIONS (angstrom)
Ti               2.2751682565        2.2751682565        1.4620848609
Ti               0.0000000000        0.0000000000        0.0000000000
O                3.1673130911        3.1673130911       -0.0000000000
O                0.8921448346        3.6581916783        1.4620848609
O                1.3830234218        1.3830234218       -0.0000000000
O                3.6581916783        0.8921448346        1.4620848609

     Writing config-only to output data dir ./tmp/TiO2.save/ :
     XML data file
     NEW-OLD atomic charge density approx. for the potential
     New effective cutoffs (rho, wfc):  334.23   41.78

[...]

     Threshold (ethr) on eigenvalues was too large:
     Diagonalizing with lowered threshold

     Davidson diagonalization with overlap
     ethr =  1.46E-11,  avg # of iterations =  6.4

[...]

     Total force =     0.000188     Total SCF correction =     0.000092
     SCF correction compared to forces is large: reduce conv_thr to get better values

[...]

     Energy error            =      8.8E-08 Ry
     Gradient error          =      6.6E-05 Ry/Bohr
     Cell gradient error     =      2.3E-01 kbar

     bfgs converged in   7 scf cycles and   6 bfgs steps
     (criteria: energy <  1.0E-04 Ry, force <  1.0E-03 Ry/Bohr, cell <  5.0E-01 kbar)

     End of BFGS Geometry Optimization

     Final enthalpy           =    -368.4263115138 Ry

     File ./tmp/TiO2.bfgs deleted, as requested
Begin final coordinates
     new unit-cell volume =    408.58731 a.u.^3 (    60.54639 Ang^3 )
     density =      4.38074 g/cm^3

CELL_PARAMETERS (angstrom)
   4.550332600   0.000000000   0.000000000
   0.000000000   4.550332600   0.000000000
   0.000000000   0.000000000   2.924165783

ATOMIC_POSITIONS (angstrom)
Ti               2.2751682565        2.2751682565        1.4620848609
Ti               0.0000000000        0.0000000000        0.0000000000
O                3.1673130911        3.1673130911       -0.0000000000
O                0.8921448346        3.6581916783        1.4620848609
O                1.3830234218        1.3830234218       -0.0000000000
O                3.6581916783        0.8921448346        1.4620848609
End final coordinates

     Writing config-only to output data dir ./tmp/TiO2.save/ :
     XML data file

     Final scf calculation at the relaxed structure.
     The G-vectors are recalculated for the final unit cell
     Results may differ from those at the preceding step.

     Using Slab Decomposition

     bravais-lattice index     =            0
     lattice parameter (alat)  =       8.7906  a.u.
     unit-cell volume          =     408.5873 (a.u.)^3
     number of atoms/cell      =            6
     number of atomic types    =            2
     number of electrons       =        48.00
     number of Kohn-Sham states=           24
     kinetic-energy cutoff     =      40.0000  Ry
     charge density cutoff     =     320.0000  Ry
     scf convergence threshold =      1.0E-08
     mixing beta               =       0.3000
     number of iterations used =            8  plain     mixing
     press convergence thresh. =      5.0E-01
     Exchange-correlation= PZ
                           (   1   1   0   0   0   0   0)

     celldm(1)=   8.790590  celldm(2)=   0.000000  celldm(3)=   0.000000
     celldm(4)=   0.000000  celldm(5)=   0.000000  celldm(6)=   0.000000

     crystal axes: (cart. coord. in units of alat)
               a(1) = (   0.978192   0.000000   0.000000 )
               a(2) = (   0.000000   0.978192   0.000000 )
               a(3) = (   0.000000   0.000000   0.628612 )

     reciprocal axes: (cart. coord. in units 2 pi/alat)
               b(1) = (  1.022295  0.000000  0.000000 )
               b(2) = (  0.000000  1.022295  0.000000 )
               b(3) = (  0.000000  0.000000  1.590806 )

     PseudoPot. # 1 for Ti read from file:
     /home/dean_gov/qe-pp/gbrv_lda/ti_lda_v1.4.uspp.F.UPF
     MD5 check sum: 0d9f225c038fe889ca2a701dcc8d72cb
     Pseudo is Ultrasoft + core correction, Zval = 12.0
     Generated by new atomic code, or converted to UPF format
     Using radial grid of  851 points,  6 beta functions with:
                l(1) =   0
                l(2) =   0
                l(3) =   1
                l(4) =   1
                l(5) =   2
                l(6) =   2
     Q(r) pseudized with  6 coefficients,  rinner =    1.000   1.000   1.000
                                                       1.000   1.000

     PseudoPot. # 2 for O  read from file:
     /home/dean_gov/qe-pp/gbrv_lda/o_lda_v1.2.uspp.F.UPF
     MD5 check sum: 194b818514d2a7dbb603bb78519a4f40
     Pseudo is Ultrasoft + core correction, Zval =  6.0
     Generated by new atomic code, or converted to UPF format
     Using radial grid of  737 points,  5 beta functions with:
                l(1) =   0
                l(2) =   0
                l(3) =   1
                l(4) =   1
                l(5) =   2
     Q(r) pseudized with  8 coefficients,  rinner =    0.900   0.900   0.900
                                                       0.900   0.900

     atomic species   valence    mass     pseudopotential
     Ti               12.00    47.86700     Ti( 1.00)
     O                 6.00    15.99900     O ( 1.00)

     16 Sym. Ops., with inversion, found ( 8 have fractional translation)

   Cartesian axes

     site n.     atom                  positions (alat units)
         1        Ti     tau(   1) = (   0.4890963   0.4890963   0.3143065  )
         2        Ti     tau(   2) = (   0.0000000   0.0000000   0.0000000  )
         3        O      tau(   3) = (   0.6808820   0.6808820  -0.0000000  )
         4        O      tau(   4) = (   0.1917857   0.7864069   0.3143065  )
         5        O      tau(   5) = (   0.2973106   0.2973106  -0.0000000  )
         6        O      tau(   6) = (   0.7864069   0.1917857   0.3143065  )

     number of k points=     9
                       cart. coord. in units 2pi/alat
        k(    1) = (   0.0000000   0.0000000   0.0000000), wk =   0.0555556
        k(    2) = (   0.0000000   0.0000000   0.3977015), wk =   0.1111111
        k(    3) = (   0.0000000   0.0000000  -0.7954029), wk =   0.0555556
        k(    4) = (   0.0000000   0.3407648   0.0000000), wk =   0.2222222
        k(    5) = (   0.0000000   0.3407648   0.3977015), wk =   0.4444444
        k(    6) = (   0.0000000   0.3407648  -0.7954029), wk =   0.2222222
        k(    7) = (   0.3407648   0.3407648   0.0000000), wk =   0.2222222
        k(    8) = (   0.3407648   0.3407648   0.3977015), wk =   0.4444444
        k(    9) = (   0.3407648   0.3407648  -0.7954029), wk =   0.2222222

     Check: negative core charge=   -0.000013

     Initial potential from superposition of free atoms

     starting charge      45.9999, renormalised to      48.0000

     negative rho (up, down):  1.921E-03 0.000E+00
     Starting wfcs are   36 randomized atomic wfcs

     Self-consistent Calculation

[...]

     total energy              =    -368.42619955 Ry
     estimated scf accuracy    <       0.00000002 Ry

     iteration # 16     ecut=    40.00 Ry     beta= 0.30
     Davidson diagonalization with overlap
     ethr =  4.10E-11,  avg # of iterations =  3.7

[...]

     End of self-consistent calculation

[...]

          k = 0.3408 0.3408-0.7954 (  1724 PWs)   bands (ev):

   -46.8666 -46.8664 -23.8879 -23.8806 -23.4454 -23.4356 -23.4140 -23.4124
    -7.6198  -7.3797  -7.0939  -6.8354   3.9119   4.3935   4.6573   4.8929
     5.2670   6.0565   6.4178   6.5696   7.5377   7.8160   8.1145   8.3498

     highest occupied level (ev):     9.2410

!    total energy              =    -368.42619955 Ry
     estimated scf accuracy    <          3.7E-10 Ry

     The total energy is the sum of the following terms:
     one-electron contribution =    -121.25140023 Ry
     hartree contribution      =      84.43164059 Ry
     xc contribution           =     -64.53003530 Ry
     ewald contribution        =    -267.07640461 Ry

     convergence has been achieved in  16 iterations

     negative rho (up, down):  1.849E-03 0.000E+00

     Forces acting on atoms (cartesian axes, Ry/au):

     atom    1 type  1   force =     0.00000000    0.00000000    0.00000000
     atom    2 type  1   force =     0.00000000    0.00000000    0.00000000
     atom    3 type  2   force =     0.00007250    0.00007250    0.00000000
     atom    4 type  2   force =     0.00007250   -0.00007250    0.00000000
     atom    5 type  2   force =    -0.00007250   -0.00007250    0.00000000
     atom    6 type  2   force =    -0.00007250    0.00007250    0.00000000

     Total force =     0.000205     Total SCF correction =     0.000003

     Computing stress (Cartesian axis) and pressure

     negative rho (up, down):  1.849E-03 0.000E+00
          total   stress  (Ry/bohr**3)                   (kbar)     P=       -0.03
  -0.00000034   0.00000000   0.00000000           -0.05        0.00        0.00
   0.00000000  -0.00000034   0.00000000            0.00       -0.05        0.00
   0.00000000   0.00000000   0.00000009            0.00        0.00        0.01

     Writing all to output data dir ./tmp/TiO2.save/ :
     XML data file, charge density, pseudopotentials, collected wavefunctions

     General routines

     Parallel routines

   This run was terminated on:  19:47:12  17Sep2025

   JOB DONE.
Note: The following floating-point exceptions are signalling: IEEE_INVALID_FLAG